(set-logic QF_S)
(declare-fun var0 () String)
(declare-fun var1 () String)
(declare-fun var2 () String)
(declare-fun var3 () String)
(declare-fun var4 () String)
(declare-fun var5 () String)
(declare-fun var6 () String)
(declare-fun var7 () String)
(declare-fun var8 () String)
(declare-fun var9 () String)
(declare-fun var10 () String)
(declare-fun var11 () String)
(declare-fun var12 () String)
(declare-fun var13 () String)
(declare-fun var14 () String)
(declare-fun var15 () String)
(declare-fun var16 () String)
(declare-fun var17 () String)
(declare-fun var18 () String)
(declare-fun var19 () String)
(declare-fun var20 () String)
(declare-fun var21 () String)
(declare-fun var22 () String)
(declare-fun var23 () String)
(declare-fun var24 () String)
(declare-fun var25 () String)
(declare-fun var26 () String)
(declare-fun var27 () String)
(declare-fun var28 () String)
(declare-fun var29 () String)
(declare-fun var30 () String)
(declare-fun var31 () String)
(declare-fun var32 () String)
(declare-fun var33 () String)
(declare-fun var34 () String)
(declare-fun var35 () String)
(declare-fun var36 () String)
(declare-fun var37 () String)
(declare-fun var38 () String)
(declare-fun var39 () String)
(declare-fun var40 () String)
(declare-fun var41 () String)
(declare-fun var42 () String)
(declare-fun var43 () String)
(declare-fun var44 () String)
(declare-fun var45 () String)
(declare-fun var46 () String)
(declare-fun var47 () String)
(declare-fun var48 () String)
(declare-fun var49 () String)
(declare-fun var50 () String)
(declare-fun var51 () String)
(declare-fun var52 () String)
(declare-fun var53 () String)
(declare-fun var54 () String)
(declare-fun var55 () String)
(declare-fun var56 () String)
(declare-fun var57 () String)
(declare-fun var58 () String)
(declare-fun var59 () String)
(declare-fun var60 () String)
(assert (= var0 (Concat var1 var2)))
(assert (= var2 (Concat var3 var4)))
(assert (= var4 (Concat var5 var6)))
(assert (= var6 (Concat var7 var8)))
(assert (= var8 (Concat var9 var10)))
(assert (= var10 (Concat var11 var12)))
(assert (= var12 (Concat var13 var14)))
(assert (= var14 (Concat var15 var16)))
(assert (= var16 (Concat var17 var18)))
(assert (= var18 (Concat var19 var20)))
(assert (= var20 (Concat var21 var22)))
(assert (= var22 (Concat var23 var24)))
(assert (= var24 (Concat var25 var26)))
(assert (= var26 (Concat var27 var28)))
(assert (= var28 (Concat var29 var30)))
(assert (= var30 (Concat var31 var32)))
(assert (= var32 (Concat var33 var34)))
(assert (= var34 (Concat var35 var36)))
(assert (= var36 (Concat var37 var38)))
(assert (= var38 (Concat var39 var40)))
(assert (= var40 (Concat var41 var42)))
(assert (= var42 (Concat var43 var44)))
(assert (= var44 (Concat var45 var46)))
(assert (= var46 (Concat var47 var48)))
(assert (= var48 (Concat var49 var50)))
(assert (= var50 (Concat var51 var52)))
(assert (= var52 (Concat var53 var54)))
(assert (= var54 (Concat var55 var56)))
(assert (= var56 (Concat var57 var58)))
(assert (= var58 (Concat var59 var60)))
(assert (= var0 "solution"))
(assert (= "Q" (CharAt var10 577)))
(assert (= "-" (CharAt var33 779)))
(assert (= "+" (CharAt var59 164)))
(assert (= "G" (CharAt var29 100)))
(assert (= ">" (CharAt var14 896)))
(assert (= "~" (CharAt var21 488)))
(assert (= "1" (CharAt var8 84)))
(assert (= "A" (CharAt var1 413)))
(assert (= "H" (CharAt var36 43)))
(assert (= "I" (CharAt var36 316)))
(assert (= "P" (CharAt var32 316)))
(assert (= "v" (CharAt var2 616)))
(assert (= "h" (CharAt var52 852)))
(assert (= ";" (CharAt var41 778)))
(assert (= "." (CharAt var59 701)))
(assert (= "7" (CharAt var3 143)))
(assert (= "3" (CharAt var40 423)))
(assert (= ":" (CharAt var37 855)))
(assert (= "k" (CharAt var33 488)))
(assert (= "{" (CharAt var20 818)))
(assert (= "u" (CharAt var5 870)))
(assert (= "F" (CharAt var17 583)))
(assert (= "\"" (CharAt var19 93)))
(assert (= "C" (CharAt var59 634)))
(assert (= "n" (CharAt var59 535)))
(assert (= "9" (CharAt var21 513)))
(assert (= "_" (CharAt var48 870)))
(assert (= "%" (CharAt var43 625)))
(assert (= "T" (CharAt var30 640)))
(assert (= "W" (CharAt var16 991)))
(assert (= "7" (CharAt var40 692)))
(assert (= ":" (CharAt var22 319)))
(assert (= "E" (CharAt var28 682)))
(assert (= "[" (CharAt var51 579)))
(assert (= "\\" (CharAt var7 338)))
(assert (= "b" (CharAt var4 898)))
(assert (= "R" (CharAt var0 241)))
(assert (= "g" (CharAt var47 549)))
(assert (= "e" (CharAt var52 796)))
(assert (= "7" (CharAt var24 137)))
(assert (= "-" (CharAt var35 407)))
(assert (= "j" (CharAt var38 731)))
(assert (= ")" (CharAt var35 665)))
(assert (= "j" (CharAt var49 504)))
(assert (= "!" (CharAt var40 965)))
(assert (= "'" (CharAt var45 550)))
(assert (= "j" (CharAt var46 582)))
(assert (= "Y" (CharAt var20 221)))
(assert (= "[" (CharAt var56 168)))
(assert (= "," (CharAt var6 596)))
(assert (= "W" (CharAt var50 15)))
(assert (= "." (CharAt var25 697)))
(assert (= "u" (CharAt var19 992)))
(assert (= "I" (CharAt var1 534)))
(assert (= "[" (CharAt var6 488)))
(assert (= "q" (CharAt var14 398)))
(assert (= "x" (CharAt var24 254)))
(assert (= "%" (CharAt var40 408)))
(assert (= "k" (CharAt var10 430)))
(assert (= "=" (CharAt var7 720)))
(assert (= "'" (CharAt var45 684)))
(assert (= "L" (CharAt var33 762)))
(assert (= "." (CharAt var2 6)))
(assert (= "d" (CharAt var56 506)))
(assert (= "f" (CharAt var28 816)))
(assert (= ")" (CharAt var1 459)))
(assert (= "8" (CharAt var44 772)))
(assert (= "[" (CharAt var45 520)))
(assert (= "n" (CharAt var51 709)))
(assert (= "@" (CharAt var54 917)))
(assert (= "1" (CharAt var1 193)))
(assert (= "5" (CharAt var41 935)))
(assert (= "V" (CharAt var47 759)))
(assert (= "Z" (CharAt var58 176)))
(assert (= "\"" (CharAt var55 863)))
(assert (= ")" (CharAt var26 961)))
(assert (= "[" (CharAt var8 155)))
(assert (= "d" (CharAt var34 600)))
(assert (= "a" (CharAt var15 226)))
(assert (= "{" (CharAt var16 385)))
(assert (= "A" (CharAt var51 715)))
(assert (= "F" (CharAt var0 516)))
(assert (= "s" (CharAt var55 329)))
(assert (= "`" (CharAt var13 262)))
(assert (= "}" (CharAt var42 365)))
(assert (= "b" (CharAt var32 401)))
(assert (= "?" (CharAt var20 463)))
(assert (= "1" (CharAt var12 841)))
(assert (= "J" (CharAt var9 293)))
(assert (= "V" (CharAt var36 376)))
(assert (= "-" (CharAt var53 341)))
(assert (= "\\" (CharAt var4 65)))
(assert (= "z" (CharAt var5 695)))
(assert (= "m" (CharAt var24 662)))
(assert (= "*" (CharAt var25 927)))
(assert (= "]" (CharAt var56 229)))
(assert (= "f" (CharAt var8 54)))
(assert (= "*" (CharAt var27 163)))
(assert (= "A" (CharAt var4 292)))
(assert (= "C" (CharAt var53 348)))
(assert (= "6" (CharAt var27 728)))
(assert (= "N" (CharAt var43 773)))
(assert (= "-" (CharAt var56 26)))
(assert (= "6" (CharAt var35 856)))
(assert (= "1" (CharAt var38 948)))
(assert (= "G" (CharAt var1 694)))
(assert (= "D" (CharAt var20 636)))
(assert (= "<" (CharAt var52 659)))
(assert (= "\\" (CharAt var30 295)))
(assert (= "%" (CharAt var47 455)))
(assert (= "U" (CharAt var27 603)))
(assert (= "1" (CharAt var11 149)))
(assert (= "+" (CharAt var9 515)))
(assert (= "$" (CharAt var45 894)))
(assert (= "<" (CharAt var24 509)))
(assert (= "i" (CharAt var8 339)))
(assert (= "!" (CharAt var50 768)))
(assert (= "|" (CharAt var27 558)))
(assert (= "R" (CharAt var53 521)))
(assert (= "1" (CharAt var53 674)))
(assert (= "I" (CharAt var25 53)))
(assert (= "]" (CharAt var13 630)))
(assert (= "6" (CharAt var54 261)))
(assert (= "M" (CharAt var36 518)))
(assert (= "\\" (CharAt var7 354)))
(assert (= "_" (CharAt var33 363)))
(assert (= "E" (CharAt var50 645)))
(assert (= "7" (CharAt var40 177)))
(assert (= "'" (CharAt var6 328)))
(assert (= "$" (CharAt var0 462)))
(assert (= "p" (CharAt var50 168)))
(assert (= "p" (CharAt var19 44)))
(assert (= "z" (CharAt var34 55)))
(assert (= "<" (CharAt var33 300)))
(assert (= "'" (CharAt var39 369)))
(assert (= "0" (CharAt var0 259)))
(assert (= "(" (CharAt var24 384)))
(assert (= "l" (CharAt var43 241)))
(assert (= "/" (CharAt var11 546)))
(assert (= "M" (CharAt var39 167)))
(assert (= "5" (CharAt var8 97)))
(assert (= ":" (CharAt var45 454)))
(assert (= "{" (CharAt var37 469)))
(assert (= "h" (CharAt var41 830)))
(assert (= "m" (CharAt var16 938)))
(assert (= "Q" (CharAt var39 894)))
(assert (= ":" (CharAt var44 1)))
(assert (= "q" (CharAt var6 378)))
(assert (= "Y" (CharAt var23 504)))
(assert (= "@" (CharAt var20 632)))
(assert (= "d" (CharAt var5 104)))
(assert (= "F" (CharAt var16 825)))
(assert (= "?" (CharAt var32 141)))
(assert (= "f" (CharAt var34 814)))
(assert (= "\\" (CharAt var50 61)))
(assert (= "s" (CharAt var21 698)))
(assert (= "(" (CharAt var14 85)))
(assert (= "H" (CharAt var13 602)))
(assert (= "d" (CharAt var4 417)))
(assert (= "A" (CharAt var45 104)))
(assert (= "s" (CharAt var25 431)))
(assert (= "*" (CharAt var20 994)))
(assert (= "l" (CharAt var23 719)))
(assert (= "1" (CharAt var23 546)))
(assert (= "~" (CharAt var52 269)))
(assert (= "q" (CharAt var18 140)))
(assert (= "Y" (CharAt var48 736)))
(assert (= "[" (CharAt var32 710)))
(assert (= "r" (CharAt var10 751)))
(assert (= "h" (CharAt var58 424)))
(assert (= "_" (CharAt var50 412)))
(assert (= "L" (CharAt var60 163)))
(assert (= ">" (CharAt var10 257)))
(assert (= "2" (CharAt var38 981)))
(assert (= "x" (CharAt var58 706)))
(assert (= "W" (CharAt var43 53)))
(assert (= "H" (CharAt var10 815)))
(assert (= "f" (CharAt var50 19)))
(assert (= "k" (CharAt var56 436)))
(assert (= "N" (CharAt var37 455)))
(assert (= "w" (CharAt var30 422)))
(assert (= "?" (CharAt var42 550)))
(assert (= "u" (CharAt var18 220)))
(assert (= "J" (CharAt var45 398)))
(assert (= "C" (CharAt var16 683)))
(assert (= "X" (CharAt var58 35)))
(assert (= "+" (CharAt var16 966)))
(assert (= "?" (CharAt var26 366)))
(assert (= "A" (CharAt var23 438)))
(assert (= "9" (CharAt var20 918)))
(assert (= "&" (CharAt var17 6)))
(assert (= ")" (CharAt var28 653)))
(assert (= "O" (CharAt var20 435)))
(assert (= "&" (CharAt var23 388)))
(assert (= "P" (CharAt var16 467)))
(assert (= "g" (CharAt var9 271)))
(assert (= "t" (CharAt var19 196)))
(assert (= "S" (CharAt var57 657)))
(assert (= "4" (CharAt var36 291)))
(assert (= "R" (CharAt var59 832)))
(assert (= "h" (CharAt var0 727)))
(assert (= "l" (CharAt var24 201)))
(assert (= "y" (CharAt var19 965)))
(assert (= ")" (CharAt var36 349)))
(assert (= ":" (CharAt var28 551)))
(assert (= "u" (CharAt var20 249)))
(assert (= "#" (CharAt var13 664)))
(assert (= "L" (CharAt var51 293)))
(assert (= "H" (CharAt var59 99)))
(assert (= "d" (CharAt var19 252)))
(assert (= "n" (CharAt var52 306)))
(assert (= "L" (CharAt var18 286)))
(assert (= "K" (CharAt var42 519)))
(assert (= "f" (CharAt var24 268)))
(assert (= "1" (CharAt var19 772)))
(assert (= "p" (CharAt var18 502)))
(assert (= "M" (CharAt var52 925)))
(assert (= "w" (CharAt var60 362)))
(assert (= "R" (CharAt var39 514)))
(assert (= "i" (CharAt var41 679)))
(assert (= "Q" (CharAt var54 6)))
(assert (= "f" (CharAt var0 120)))
(assert (= "D" (CharAt var15 100)))
(assert (= "@" (CharAt var8 648)))
(assert (= "P" (CharAt var3 92)))
(assert (= "E" (CharAt var21 269)))
(assert (= "y" (CharAt var57 961)))
(assert (= "8" (CharAt var7 38)))
(assert (= "@" (CharAt var29 432)))
(assert (= "*" (CharAt var45 423)))
(assert (= "J" (CharAt var35 800)))
(assert (= "$" (CharAt var7 57)))
(assert (= "a" (CharAt var0 318)))
(assert (= "Z" (CharAt var48 496)))
(assert (= "Z" (CharAt var24 125)))
(assert (= "k" (CharAt var32 171)))
(assert (= "B" (CharAt var11 842)))
(assert (= "2" (CharAt var56 961)))
(assert (= ")" (CharAt var60 171)))
(assert (= "Q" (CharAt var39 415)))
(assert (= "+" (CharAt var49 317)))
(assert (= "/" (CharAt var47 998)))
(assert (= "9" (CharAt var43 567)))
(assert (= "$" (CharAt var57 532)))
(assert (= ">" (CharAt var50 895)))
(assert (= "h" (CharAt var60 937)))
(assert (= "<" (CharAt var34 27)))
(assert (= "8" (CharAt var0 328)))
(assert (= "A" (CharAt var7 389)))
(assert (= "5" (CharAt var54 737)))
(assert (= "f" (CharAt var7 887)))
(assert (= "m" (CharAt var5 594)))
(assert (= "\"" (CharAt var41 449)))
(assert (= "u" (CharAt var44 322)))
(assert (= "e" (CharAt var20 902)))
(assert (= "U" (CharAt var59 502)))
(assert (= "/" (CharAt var46 487)))
(assert (= "w" (CharAt var55 286)))
(assert (= "Y" (CharAt var12 997)))
(assert (= "=" (CharAt var48 922)))
(assert (= "!" (CharAt var28 822)))
(assert (= "u" (CharAt var47 292)))
(assert (= "h" (CharAt var29 351)))
(assert (= "1" (CharAt var39 33)))
(assert (= "}" (CharAt var27 80)))
(assert (= "G" (CharAt var8 917)))
(assert (= "y" (CharAt var47 768)))
(assert (= "w" (CharAt var38 945)))
(assert (= "^" (CharAt var52 439)))
(assert (= "^" (CharAt var32 729)))
(assert (= "i" (CharAt var41 807)))
(assert (= "%" (CharAt var60 83)))
(assert (= "s" (CharAt var31 651)))
(assert (= "`" (CharAt var5 19)))
(assert (= "}" (CharAt var50 250)))
(assert (= "W" (CharAt var18 965)))
(assert (= "T" (CharAt var47 851)))
(assert (= "W" (CharAt var33 47)))
(assert (= "P" (CharAt var47 90)))
(assert (= "B" (CharAt var13 677)))
(assert (= "a" (CharAt var49 90)))
(assert (= "L" (CharAt var31 207)))
(assert (= "M" (CharAt var37 693)))
(assert (= "5" (CharAt var36 372)))
(assert (= "T" (CharAt var36 522)))
(assert (= ">" (CharAt var58 209)))
(assert (= "#" (CharAt var0 352)))
(assert (= "{" (CharAt var56 263)))
(assert (= "[" (CharAt var6 449)))
(assert (= "N" (CharAt var10 699)))
(assert (= "B" (CharAt var9 723)))
(assert (= "c" (CharAt var13 163)))
(assert (= "@" (CharAt var60 315)))
(assert (= "~" (CharAt var16 980)))
(assert (= "h" (CharAt var24 351)))
(assert (= "1" (CharAt var13 880)))
(assert (= "V" (CharAt var32 762)))
(assert (= ":" (CharAt var40 416)))
(assert (= "W" (CharAt var29 492)))
(assert (= "|" (CharAt var1 547)))
(assert (= "X" (CharAt var25 824)))
(assert (= "y" (CharAt var14 416)))
(assert (= "z" (CharAt var10 827)))
(assert (= "*" (CharAt var27 745)))
(assert (= "F" (CharAt var38 854)))
(assert (= "," (CharAt var49 207)))
(assert (= "g" (CharAt var25 789)))
(assert (= "k" (CharAt var37 128)))
(assert (= "x" (CharAt var39 519)))
(assert (= "7" (CharAt var24 329)))
(assert (= "$" (CharAt var20 145)))
(assert (= "E" (CharAt var18 56)))
(assert (= "7" (CharAt var42 256)))
(assert (= "5" (CharAt var60 850)))
(assert (= "q" (CharAt var49 76)))
(assert (= "R" (CharAt var46 803)))
(assert (= "6" (CharAt var60 859)))
(assert (= "B" (CharAt var59 530)))
(assert (= "q" (CharAt var16 923)))
(assert (= "\\" (CharAt var46 534)))
(assert (= "N" (CharAt var18 184)))
(assert (= "M" (CharAt var47 762)))
(assert (= "%" (CharAt var49 113)))
(assert (= "," (CharAt var2 991)))
(assert (= "X" (CharAt var20 748)))
(assert (= "G" (CharAt var1 878)))
(assert (= "L" (CharAt var48 345)))
(assert (= "_" (CharAt var17 216)))
(assert (= "?" (CharAt var47 144)))
(assert (= "R" (CharAt var12 759)))
(assert (= "X" (CharAt var28 235)))
(assert (= "@" (CharAt var45 725)))
(assert (= "Q" (CharAt var52 935)))
(assert (= "|" (CharAt var56 476)))
(assert (= "|" (CharAt var41 105)))
(assert (= "9" (CharAt var13 752)))
(assert (= "X" (CharAt var47 19)))
(assert (= "R" (CharAt var14 491)))
(assert (= "H" (CharAt var32 990)))
(assert (= "k" (CharAt var43 819)))
(assert (= "q" (CharAt var14 401)))
(assert (= "s" (CharAt var0 913)))
(assert (= "9" (CharAt var13 912)))
(assert (= "I" (CharAt var35 590)))
(assert (= "R" (CharAt var17 679)))
(assert (= "=" (CharAt var53 362)))
(assert (= "%" (CharAt var45 371)))
(assert (= "O" (CharAt var10 632)))
(assert (= "a" (CharAt var7 942)))
(assert (= "f" (CharAt var39 839)))
(assert (= "." (CharAt var34 230)))
(assert (= "]" (CharAt var44 161)))
(assert (= "q" (CharAt var59 860)))
(assert (= "O" (CharAt var11 597)))
(assert (= "V" (CharAt var8 682)))
(assert (= "5" (CharAt var25 2)))
(assert (= "a" (CharAt var52 949)))
(assert (= "j" (CharAt var12 990)))
(assert (= "H" (CharAt var3 218)))
(assert (= "m" (CharAt var23 615)))
(assert (= "?" (CharAt var47 60)))
(check-sat)